
Gurobi 13.0.0 (linux64) logging started Fri Jan 16 02:47:30 2026

Set parameter LogFile to value "../experiments/network-n_50_s_2_rp_0-app_set-id_35_16_apps/submip_40_epr1_model_gurobi.log"
Set parameter TimeLimit to value 858.851746765984
Gurobi Optimizer version 13.0.0 build v13.0.0rc1 (linux64 - "Ubuntu 24.04.3 LTS")

CPU model: Intel(R) Core(TM) Ultra 7 165H, instruction set [SSE2|AVX|AVX2]
Thread count: 22 physical cores, 22 logical processors, using up to 22 threads

Non-default parameters:
TimeLimit  858.851746765984
LogToConsole  0

Academic license 2539022 - for non-commercial use only - registered to al___@studenti.unimi.it
Optimize a model with 24849 rows, 5200 columns and 56686 nonzeros (Min)
Model fingerprint: 0x718ad6f5
Model has 5200 linear objective coefficients
Model has 162 quadratic constraints
Variable types: 0 continuous, 5200 integer (5200 binary)
Coefficient statistics:
  Matrix range     [1e+00, 9e+02]
  QMatrix range    [5e+01, 2e+02]
  Objective range  [1e+01, 2e+02]
  Bounds range     [1e+00, 1e+00]
  RHS range        [1e+00, 1e+09]
  QRHS range       [1e+02, 6e+02]
Presolve removed 24529 rows and 4390 columns
Presolve time: 0.05s
Presolved: 4833 rows, 5172 columns, 29980 nonzeros
Variable types: 0 continuous, 5172 integer (5172 binary)

Root relaxation: objective 4.190108e+03, 782 iterations, 0.03 seconds (0.05 work units)

    Nodes    |    Current Node    |     Objective Bounds      |     Work
 Expl Unexpl |  Obj  Depth IntInf | Incumbent    BestBd   Gap | It/Node Time

     0     0 4190.10760    0  112          - 4190.10760      -     -    0s
     0     0 infeasible    0               - infeasible      -     -    0s

Cutting planes:
  Gomory: 7
  Cover: 43
  Clique: 11
  MIR: 31
  Knapsack: 7
  StrongCG: 25
  GUB cover: 10
  Zero half: 10
  RLT: 43
  Relax-and-lift: 31
  BQP: 23

Explored 1 nodes (1490 simplex iterations) in 0.50 seconds (0.44 work units)
Thread count was 22 (of 22 available processors)

Solution count 0

Model is infeasible
Best objective -, best bound -, gap -

User-callback calls 643, time in user-callback 0.00 sec
